calculation phonon
&inputph 
tr2_ph = 1.0d-14,
prefix = 'calculation',
outdir = './work',
fildyn = 'calculation.dyn',
ldisp = .true.,
nq1 = 2,
nq2 = 2,
nq3 = 2,
/ 
