&control
prefix = 'calculation', 
calculation = 'scf', 
outdir = './work', 
pseudo_dir = './pseudo', 
restart_mode = 'from_scratch', 
/
&system
ibrav = 0, 
nat = 2, 
ntyp = 2, 
ecutwfc = 60.0, 
ecutrho = 240.0, 
occupations = 'tetrahedra', 
nspin = 2, 
tot_magnetization = 0.0, 
starting_magnetization(1) = 0.5
starting_magnetization(2) = -0.5
edir = 3, 
emaxpos = 0.45, 
eopreg = 0.1, 
eamp = 0.009723452336177272, 
/
&electrons
mixing_beta = 0.7, 
electron_maxstep = 200, 
/
ATOMIC_SPECIES
Se  78.96  Se.pbe-dn-kjpaw_psl.1.0.0.UPF 
Fe  55.845  Fe.pbe-spn-kjpaw_psl.1.0.0.UPF 
ATOMIC_POSITIONS crystal 
Fe  0.0000000000  0.0000000000  0.0000000000 
Se  0.5000000000  0.5000000000  0.5000000000 
CELL_PARAMETERS angstrom 
3.0440020000   0.0000000000   0.0000000000 
-0.0000000000   3.0440020000   0.0000000000 
0.0000000000   0.0000000000   3.0440020000 
K_POINTS {automatic}
4 4 4 0 0 0
HUBBARD (ortho-atomic)
U Se-3d 8.0