num_bands         =   16
num_wann          =   5
dis_win_max =  1.8929d01
dis_win_min =  1.1049d01
write_hr = .true.
bands_plot = .true.
bands_num_points = 100
wannier_plot = .true.

begin Unit_Cell_Cart 
Ang 
3.0440020000   0.0000000000   0.0000000000 
-0.0000000000   3.0440020000   0.0000000000 
0.0000000000   0.0000000000   3.0440020000 
End Unit_Cell_Cart 

Begin Projections 
Fe:dxy;dyz;dxz;dz2;dx2-y2
End Projections

Begin  ATOMS_FRAC
Fe  0.0000000000  0.0000000000  0.0000000000 
Se  0.5000000000  0.5000000000  0.5000000000 
End ATOMS_FRAC 

Begin Kpoint_path
GAMMA 0.0 0.0 0.0 X 0.0 0.5 0.0
X 0.0 0.5 0.0 M 0.5 0.5 0.0
M 0.5 0.5 0.0 GAMMA 0.0 0.0 0.0
GAMMA 0.0 0.0 0.0 R 0.5 0.5 0.5
R 0.5 0.5 0.5 X 0.0 0.5 0.0
R 0.5 0.5 0.5 M 0.5 0.5 0.0
End Kpoint_path

mp_grid = 4 4 4

begin kpoints 
0.0 0.0 0.0
0.0 0.0 0.25
0.0 0.0 0.5
0.0 0.0 0.75
0.0 0.25 0.0
0.0 0.25 0.25
0.0 0.25 0.5
0.0 0.25 0.75
0.0 0.5 0.0
0.0 0.5 0.25
0.0 0.5 0.5
0.0 0.5 0.75
0.0 0.75 0.0
0.0 0.75 0.25
0.0 0.75 0.5
0.0 0.75 0.75
0.25 0.0 0.0
0.25 0.0 0.25
0.25 0.0 0.5
0.25 0.0 0.75
0.25 0.25 0.0
0.25 0.25 0.25
0.25 0.25 0.5
0.25 0.25 0.75
0.25 0.5 0.0
0.25 0.5 0.25
0.25 0.5 0.5
0.25 0.5 0.75
0.25 0.75 0.0
0.25 0.75 0.25
0.25 0.75 0.5
0.25 0.75 0.75
0.5 0.0 0.0
0.5 0.0 0.25
0.5 0.0 0.5
0.5 0.0 0.75
0.5 0.25 0.0
0.5 0.25 0.25
0.5 0.25 0.5
0.5 0.25 0.75
0.5 0.5 0.0
0.5 0.5 0.25
0.5 0.5 0.5
0.5 0.5 0.75
0.5 0.75 0.0
0.5 0.75 0.25
0.5 0.75 0.5
0.5 0.75 0.75
0.75 0.0 0.0
0.75 0.0 0.25
0.75 0.0 0.5
0.75 0.0 0.75
0.75 0.25 0.0
0.75 0.25 0.25
0.75 0.25 0.5
0.75 0.25 0.75
0.75 0.5 0.0
0.75 0.5 0.25
0.75 0.5 0.5
0.75 0.5 0.75
0.75 0.75 0.0
0.75 0.75 0.25
0.75 0.75 0.5
0.75 0.75 0.75
end kpoints 

