&control
prefix = 'calculation', 
calculation = 'scf', 
outdir = './work', 
pseudo_dir = '../ONCV/oncv', 
restart_mode = 'from_scratch', 
/
&system
ibrav = 0, 
nat = 2, 
ntyp = 2, 
ecutwfc = 60.0, 
ecutrho = 240.0, 
occupations = 'tetrahedra', 
/
&electrons
mixing_beta = 0.7, 
electron_maxstep = 200, 
/
ATOMIC_SPECIES
Se  78.96  Se_ONCV_PBE-1.0.upf  
Fe  55.845  Fe_ONCV_PBE-1.0.upf  
ATOMIC_POSITIONS crystal 
Fe  0.0000000000  0.0000000000  0.0000000000 
Se  0.5000000000  0.5000000000  0.5000000000 
CELL_PARAMETERS angstrom 
3.0440020000   0.0000000000   0.0000000000 
-0.0000000000   3.0440020000   0.0000000000 
0.0000000000   0.0000000000   3.0440020000 
K_POINTS {automatic}
4 4 4 0 0 0