&dos
    outdir = './work',
    prefix= 'calculation',
    fildos= 'calculation.dos',
/
        