&projwfc
    outdir = './work',
    prefix= 'calculation',
/
        