&inputpp
    outdir='./work'
    prefix='calculation',
    seedname='calculation',
/
