num_bands         =   20
num_wann          =   5

dis_win_max =  1.8929d01
dis_win_min =  1.1049d01
begin projections 
f=0.0, 0.0, 0.0: dxy
f=0.0, 0.0, 0.0: dyz
f=0.0, 0.0, 0.0: dxz
f=0.0, 0.0, 0.0: dz2
f=0.0, 0.0, 0.0: dx2-y2
end projections 

write_hr = .true.
bands_plot = .true.

begin kpoint_path
L   0.50000     0.00000     0.00000   G   0.00000     0.00000     0.00000
G   0.00000     0.00000     0.00000   X   0.50000     0.50000     0.00000
end kpoint_path
begin unit_cell_cart 
angstrom 
3.0440020000   0.0000000000   0.0000000000 
-0.0000000000   3.0440020000   0.0000000000 
0.0000000000   0.0000000000   3.0440020000 
end unit_cell_cart 
begin atoms_frac 
Fe  0.0000000000  0.0000000000  0.0000000000 
Se  0.5000000000  0.5000000000  0.5000000000 
end atoms_frac 

mp_grid = 4 4 4
begin kpoints 
0.0 0.0 0.0
0.0 0.0 0.25
0.0 0.0 0.5
0.0 0.0 0.75
0.0 0.25 0.0
0.0 0.25 0.25
0.0 0.25 0.5
0.0 0.25 0.75
0.0 0.5 0.0
0.0 0.5 0.25
0.0 0.5 0.5
0.0 0.5 0.75
0.0 0.75 0.0
0.0 0.75 0.25
0.0 0.75 0.5
0.0 0.75 0.75
0.25 0.0 0.0
0.25 0.0 0.25
0.25 0.0 0.5
0.25 0.0 0.75
0.25 0.25 0.0
0.25 0.25 0.25
0.25 0.25 0.5
0.25 0.25 0.75
0.25 0.5 0.0
0.25 0.5 0.25
0.25 0.5 0.5
0.25 0.5 0.75
0.25 0.75 0.0
0.25 0.75 0.25
0.25 0.75 0.5
0.25 0.75 0.75
0.5 0.0 0.0
0.5 0.0 0.25
0.5 0.0 0.5
0.5 0.0 0.75
0.5 0.25 0.0
0.5 0.25 0.25
0.5 0.25 0.5
0.5 0.25 0.75
0.5 0.5 0.0
0.5 0.5 0.25
0.5 0.5 0.5
0.5 0.5 0.75
0.5 0.75 0.0
0.5 0.75 0.25
0.5 0.75 0.5
0.5 0.75 0.75
0.75 0.0 0.0
0.75 0.0 0.25
0.75 0.0 0.5
0.75 0.0 0.75
0.75 0.25 0.0
0.75 0.25 0.25
0.75 0.25 0.5
0.75 0.25 0.75
0.75 0.5 0.0
0.75 0.5 0.25
0.75 0.5 0.5
0.75 0.5 0.75
0.75 0.75 0.0
0.75 0.75 0.25
0.75 0.75 0.5
0.75 0.75 0.75
end kpoints 
