&CONTROL
   calculation='md'
   dt=20
   nstep=50
/
&SYSTEM
   ntyp             = 2
   nat              = 5
   ibrav            = 0
   nosym=.true.
/
&ELECTRONS
/
&IONS
   ion_temperature='initial'
   tempw=300.0
/
&CELL
/

ATOMIC_SPECIES
C 12.011 C.pbe-n-kjpaw_psl.1.0.0.UPF
H 1.008 H.pbe-rrkjus_psl.1.0.0.UPF

K_POINTS gamma

CELL_PARAMETERS angstrom
10.00000000000000 0.00000000000000 0.00000000000000
0.00000000000000 10.00000000000000 0.00000000000000
0.00000000000000 0.00000000000000 10.00000000000000

ATOMIC_POSITIONS angstrom
C 5.0000000000 5.0000000000 5.0000000000 
H 5.6291180000 5.6291180000 5.6291180000 
H 4.3708820000 4.3708820000 5.6291180000 
H 5.6291180000 4.3708820000 4.3708820000 
H 4.3708820000 5.6291180000 4.3708820000 